p cnf 44 48
-1 7 16 19 23 32 40 0 
-2 5 40 0 
-3 40 0 
-4 8 24 30 34 35 -5 2 41 -42 0 
-6 40 0 
-7 1 16 19 23 32 41 -42 0 
-8 4 24 30 34 35 40 0 
-9 31 40 0 
-10 27 40 0 
-11 40 0 
-4 8 24 30 34 35 41 -42 0 
-4 8 24 30 34 35 42 0 
-4 8 24 30 34 35 43 -42 0 
-12 40 0 
-7 1 16 19 23 32 42 0 
-7 1 16 19 23 32 43 -42 0 
-13 40 0 
-14 21 40 0 
-15 -16 1 7 19 23 32 40 0 
-17 40 0 
-18 39 -19 1 7 16 23 32 40 0 
-20 41 -42 0 
-6 -19 1 7 16 23 32 40 0 
-13 -14 21 40 0 
-21 14 40 0 
-22 33 40 0 
-23 1 7 16 19 32 40 0 
-15 40 0 
-24 4 8 30 34 35 40 0 
-25 44 -42 0 
-26 40 0 
-27 10 40 0 
-28 40 0 
-29 40 0 
-30 4 8 24 34 35 40 0 
-31 9 40 0 
-32 1 7 16 19 23 40 0 
-33 22 40 0 
-34 4 8 24 30 35 40 0 
-35 4 8 24 30 34 40 0 
-19 1 7 16 23 32 40 0 
-18 39 40 0 
-36 -7 1 16 19 23 32 43 -42 0 
-31 9 -7 1 16 19 23 32 41 -42 0 
-15 -32 1 7 16 19 23 40 0 
-37 41 -42 0 
-38 40 0 
-39 18 40 0 
